row=7;
column=7;
left=[0, 0, 0, 2, 0, 0, 0];
right=[2, 4, 2, 0, 0, 0, 0];
top=[0, 0, 5, 0, 0, 0, 0];
bottom=[0, 3, 0, 3, 0, 0, 0];
Board=[|0,3,0,0,4,0,5|0,0,1,0,0,4,0|7,1,0,4,2,5,0|0,2,0,0,0,3,7|0,5,0,0,1,0,0|2,0,5,0,0,0,0|0,4,0,2,3,0,1|]